% Parameter file that may be used in place of command line parameters

%%%%%%%%%%%%%%%%%%%%%%%%%
% Examples of commands using this file to launch from the minizinc source code directory

%% On original instance p06
% date; minizinc --solver or-tools --time-limit 3600000 --random-seed 1 --parallel 1 --compiler-statistics --solver-statistics --intermediate wvcp_solve.mzn no_ub_colors.dzn no_ub_score.dzn no_cliques.dzn parameters.dzn ../original_wvcp_dzn/p06.dzn; beep;

%% On reduced instance p06 with cliques
% date; minizinc --solver or-tools --time-limit 3600000 --random-seed 1 --parallel 1 --compiler-statistics --solver-statistics --intermediate wvcp_solve.mzn no_ub_colors.dzn no_ub_score.dzn parameters.dzn ../reduced_wvcp_dzn/p06.dzn ../reduced_wvcp_dzn/p06.clq.dzn; beep;

%%%%%%%%%%%%%%%%%%%%%%%%%


%%%%%%%%%%%%%%%%%%%%%%%%%
% Fix heuristics here

WVCP_SEARCH_STRATEGY						= VERTICES_GENERIC; % see enum WVCP_SEARCH
WVCP_SEARCH_RESTART							= RESTART_NONE; % see enum SEARCH_RESTART

WVCP_SEARCH_VARIABLES_COLORS		= WVCPSV(INPUT_ORDER); % see enums WVCP_SEARCH_VARIABLES and SEARCH_VARIABLES
WVCP_SEARCH_DOMAIN_COLORS				= INDOMAIN_MIN; % see enums WVCP_SEARCH_DOMAIN and SEARCH_DOMAIN 

WVCP_SEARCH_VARIABLES_WEIGHTS		= WVCPSV(INPUT_ORDER); % see enums WVCP_SEARCH_VARIABLES and SEARCH_VARIABLES
WVCP_SEARCH_DOMAIN_WEIGHTS			= INDOMAIN_SPLIT; % see enums WVCP_SEARCH_DOMAIN and SEARCH_DOMAIN 

WVCP_SEARCH_VARIABLES_VERTICES	= WVCPSV(FIRST_FAIL); % see enums WVCP_SEARCH_VARIABLES and SEARCH_VARIABLES
WVCP_SEARCH_DOMAIN_VERTICES			= INDOMAIN_SPLIT; % see enums WVCP_SEARCH_DOMAIN and SEARCH_DOMAIN 


%%%%%%%%%%%%%%%%%%%%%%%%%
% Fix bound flags by uncommenting a single line (see data.mzn)

WVCP_B	= {                   };
% WVCP_B	= {UB_COLORS          };
% WVCP_B	= {UB_COLORS, UB_SCORE};
% WVCP_B	= {           UB_SCORE};


%%%%%%%%%%%%%%%%%%%%%%%%%
% Fix model flags by uncommenting a single line (see data.mzn)

% WVCP_M	= {                                             };
% WVCP_M	= {                   M_SR1,                    };
% WVCP_M	= {                   M_SR1,        M_SR2,      };
% WVCP_M	= {                   M_SR1,               M_DR2};
% WVCP_M	= {                   M_SR1,        M_SR2, M_DR2};
% WVCP_M	= {                          M_DR1,             };
% WVCP_M	= {                          M_DR1, M_SR2,      };
% WVCP_M	= {                          M_DR1,        M_DR2};
% WVCP_M	= {                          M_DR1, M_SR2, M_DR2};
% WVCP_M	= {                                 M_SR2,      };
% WVCP_M	= {                                        M_DR2};
% WVCP_M	= {                                 M_SR2, M_DR2};

% WVCP_M	= {        M_CLIQUES,                           };
% WVCP_M	= {        M_CLIQUES, M_SR1,                    };
% WVCP_M	= {        M_CLIQUES, M_SR1,        M_SR2,      };
% WVCP_M	= {        M_CLIQUES, M_SR1,               M_DR2};
% WVCP_M	= {        M_CLIQUES, M_SR1,        M_SR2, M_DR2};
% WVCP_M	= {        M_CLIQUES,        M_DR1,             };
% WVCP_M	= {        M_CLIQUES,        M_DR1, M_SR2,      };
% WVCP_M	= {        M_CLIQUES,        M_DR1,        M_DR2};
% WVCP_M	= {        M_CLIQUES,        M_DR1, M_SR2, M_DR2};
% WVCP_M	= {        M_CLIQUES,               M_SR2,      };
% WVCP_M	= {        M_CLIQUES,                      M_DR2};
% WVCP_M	= {        M_CLIQUES,               M_SR2, M_DR2};

% WVCP_M	= {M_SORT,                                      };
% WVCP_M	= {M_SORT,            M_SR1,                    };
% WVCP_M	= {M_SORT,            M_SR1,        M_SR2,      };
% WVCP_M	= {M_SORT,            M_SR1,               M_DR2};
% WVCP_M	= {M_SORT,            M_SR1,        M_SR2, M_DR2};
% WVCP_M	= {M_SORT,                   M_DR1,             };
% WVCP_M	= {M_SORT,                   M_DR1, M_SR2,      };
% WVCP_M	= {M_SORT,                   M_DR1,        M_DR2};
% WVCP_M	= {M_SORT,                   M_DR1, M_SR2, M_DR2};
WVCP_M	= {M_SORT,                          M_SR2,      };
% WVCP_M	= {M_SORT,                                 M_DR2};
% WVCP_M	= {M_SORT,                          M_SR2, M_DR2};

% WVCP_M	= {M_SORT, M_CLIQUES,                           };
% WVCP_M	= {M_SORT, M_CLIQUES, M_SR1,                    };
% WVCP_M	= {M_SORT, M_CLIQUES, M_SR1,        M_SR2,      };
% WVCP_M	= {M_SORT, M_CLIQUES, M_SR1,               M_DR2};
% WVCP_M	= {M_SORT, M_CLIQUES, M_SR1,        M_SR2, M_DR2};
% WVCP_M	= {M_SORT, M_CLIQUES,        M_DR1,             };
% WVCP_M	= {M_SORT, M_CLIQUES,        M_DR1, M_SR2,      };
% WVCP_M	= {M_SORT, M_CLIQUES,        M_DR1,        M_DR2};
% WVCP_M	= {M_SORT, M_CLIQUES,        M_DR1, M_SR2, M_DR2};
% WVCP_M	= {M_SORT, M_CLIQUES,               M_SR2,      };
% WVCP_M	= {M_SORT, M_CLIQUES,                      M_DR2};
% WVCP_M	= {M_SORT, M_CLIQUES,               M_SR2, M_DR2};
